\ Model Modelo 1
\ LP format - for model browsing. Use MPS format to capture full model detail.
Minimize
  80 Pg[2] + 100 Pg[3] + 100 Pg[4] + 150 Pg[5] + 150 Pg[6] + 200 Constant
Subject To
 R0: - dpk[0,0] >= -14.28941666666667
 R1: - dpk[0,1] >= -14.28941666666667
 R2: - dpk[0,2] >= -14.28941666666667
 R3: - dpk[0,3] >= -14.28941666666667
 R4: - dpk[0,4] >= -14.28941666666667
 R5: - dpk[0,5] >= -14.28941666666667
 R6: - dpk[1,0] >= -14.28941666666667
 R7: - dpk[1,1] >= -14.28941666666667
 R8: - dpk[1,2] >= -14.28941666666667
 R9: - dpk[1,3] >= -14.28941666666667
 R10: - dpk[1,4] >= -14.28941666666667
 R11: - dpk[1,5] >= -14.28941666666667
 R12: - dpk[2,0] >= -14.28941666666667
 R13: - dpk[2,1] >= -14.28941666666667
 R14: - dpk[2,2] >= -14.28941666666667
 R15: - dpk[2,3] >= -14.28941666666667
 R16: - dpk[2,4] >= -14.28941666666667
 R17: - dpk[2,5] >= -14.28941666666667
 R18: - dpk[3,0] >= -38.7402
 R19: - dpk[3,1] >= -38.7402
 R20: - dpk[3,2] >= -38.7402
 R21: - dpk[3,3] >= -38.7402
 R22: - dpk[3,4] >= -38.7402
 R23: - dpk[3,5] >= -38.7402
 R24: - dpk[4,0] >= -38.7402
 R25: - dpk[4,1] >= -38.7402
 R26: - dpk[4,2] >= -38.7402
 R27: - dpk[4,3] >= -38.7402
 R28: - dpk[4,4] >= -38.7402
 R29: - dpk[4,5] >= -38.7402
 R30: - dpk[5,0] >= -38.7402
 R31: - dpk[5,1] >= -38.7402
 R32: - dpk[5,2] >= -38.7402
 R33: - dpk[5,3] >= -38.7402
 R34: - dpk[5,4] >= -38.7402
 R35: - dpk[5,5] >= -38.7402
 R36: - dpk[6,0] >= -14.28941666666667
 R37: - dpk[6,1] >= -14.28941666666667
 R38: - dpk[6,2] >= -14.28941666666667
 R39: - dpk[6,3] >= -14.28941666666667
 R40: - dpk[6,4] >= -14.28941666666667
 R41: - dpk[6,5] >= -14.28941666666667
 R42: - dpk[7,0] >= -14.28941666666667
 R43: - dpk[7,1] >= -14.28941666666667
 R44: - dpk[7,2] >= -14.28941666666667
 R45: - dpk[7,3] >= -14.28941666666667
 R46: - dpk[7,4] >= -14.28941666666667
 R47: - dpk[7,5] >= -14.28941666666667
 R48: - dpk[8,0] >= -14.28941666666667
 R49: - dpk[8,1] >= -14.28941666666667
 R50: - dpk[8,2] >= -14.28941666666667
 R51: - dpk[8,3] >= -14.28941666666667
 R52: - dpk[8,4] >= -14.28941666666667
 R53: - dpk[8,5] >= -14.28941666666667
 R54: - dpk[9,0] >= -38.7402
 R55: - dpk[9,1] >= -38.7402
 R56: - dpk[9,2] >= -38.7402
 R57: - dpk[9,3] >= -38.7402
 R58: - dpk[9,4] >= -38.7402
 R59: - dpk[9,5] >= -38.7402
 R60: - dpk[10,0] >= -38.7402
 R61: - dpk[10,1] >= -38.7402
 R62: - dpk[10,2] >= -38.7402
 R63: - dpk[10,3] >= -38.7402
 R64: - dpk[10,4] >= -38.7402
 R65: - dpk[10,5] >= -38.7402
 R66: - dpk[11,0] >= -38.7402
 R67: - dpk[11,1] >= -38.7402
 R68: - dpk[11,2] >= -38.7402
 R69: - dpk[11,3] >= -38.7402
 R70: - dpk[11,4] >= -38.7402
 R71: - dpk[11,5] >= -38.7402
 R72: - dpk[12,0] >= -38.7402
 R73: - dpk[12,1] >= -38.7402
 R74: - dpk[12,2] >= -38.7402
 R75: - dpk[12,3] >= -38.7402
 R76: - dpk[12,4] >= -38.7402
 R77: - dpk[12,5] >= -38.7402
 R78: - dpk[13,0] >= -38.7402
 R79: - dpk[13,1] >= -38.7402
 R80: - dpk[13,2] >= -38.7402
 R81: - dpk[13,3] >= -38.7402
 R82: - dpk[13,4] >= -38.7402
 R83: - dpk[13,5] >= -38.7402
 R84: - dpk[14,0] >= -14.28941666666667
 R85: - dpk[14,1] >= -14.28941666666667
 R86: - dpk[14,2] >= -14.28941666666667
 R87: - dpk[14,3] >= -14.28941666666667
 R88: - dpk[14,4] >= -14.28941666666667
 R89: - dpk[14,5] >= -14.28941666666667
 R90: - dpk[15,0] >= -14.28941666666667
 R91: - dpk[15,1] >= -14.28941666666667
 R92: - dpk[15,2] >= -14.28941666666667
 R93: - dpk[15,3] >= -14.28941666666667
 R94: - dpk[15,4] >= -14.28941666666667
 R95: - dpk[15,5] >= -14.28941666666667
 R96: - 0.0183115262618809 dpk[0,0] - 0.0549345787856426 dpk[0,1]
   - 0.0915576313094043 dpk[0,2] - 0.1281806838331661 dpk[0,3]
   - 0.1648037363569278 dpk[0,4] - 0.2014267888806895 dpk[0,5] + pk_loss[0]
   = 0
 R97: 0.195 Pg[0] + 0.0359 Pg[1] - 0.0047 Pg[3] - 0.0047 Pg[4]
   - 0.0161 Pg[5] - 0.0161 Pg[6] + flujo[0] = -6.134836000000002
 R98: flujo[0] - Pk_mas[0] + Pk_menos[0] = 0
 R99: - Pk_mas[0] - Pk_menos[0] + dpk[0,0] + dpk[0,1] + dpk[0,2] + dpk[0,3]
   + dpk[0,4] + dpk[0,5] = 0
 R100: Pk_mas[0] + Pk_menos[0] + pk_loss[0] <= 85.7365
 R101: - 0.00792008053853806 dpk[1,0] - 0.0237602416156142 dpk[1,1]
   - 0.0396004026926903 dpk[1,2] - 0.0554405637697664 dpk[1,3]
   - 0.0712807248468425 dpk[1,4] - 0.0871208859239186 dpk[1,5] + pk_loss[1]
   = 0
 R102: - 0.195 Pg[0] - 0.0359 Pg[1] + 0.0047 Pg[3] + 0.0047 Pg[4]
   + 0.0161 Pg[5] + 0.0161 Pg[6] + flujo[1] = -9.565164000000003
 R103: flujo[1] - Pk_mas[1] + Pk_menos[1] = 0
 R104: - Pk_mas[1] - Pk_menos[1] + dpk[1,0] + dpk[1,1] + dpk[1,2]
   + dpk[1,3] + dpk[1,4] + dpk[1,5] = 0
 R105: Pk_mas[1] + Pk_menos[1] + pk_loss[1] <= 85.7365
 R106: - 0.0253085945278264 dpk[2,0] - 0.0759257835834793 dpk[2,1]
   - 0.1265429726391321 dpk[2,2] - 0.177160161694785 dpk[2,3]
   - 0.2277773507504378 dpk[2,4] - 0.2783945398060907 dpk[2,5] + pk_loss[2]
   = 0
 R107: - 0.1271 Pg[0] - 0.0234 Pg[1] + 0.0031 Pg[3] + 0.0031 Pg[4]
   + 0.0105 Pg[5] + 0.0105 Pg[6] + flujo[2] = -11.896642
 R108: flujo[2] - Pk_mas[2] + Pk_menos[2] = 0
 R109: - Pk_mas[2] - Pk_menos[2] + dpk[2,0] + dpk[2,1] + dpk[2,2]
   + dpk[2,3] + dpk[2,4] + dpk[2,5] = 0
 R110: Pk_mas[2] + Pk_menos[2] + pk_loss[2] <= 85.7365
 R111: - 0.0164971558430798 dpk[3,0] - 0.0494914675292393 dpk[3,1]
   - 0.0824857792153989 dpk[3,2] - 0.1154800909015584 dpk[3,3]
   - 0.148474402587718 dpk[3,4] - 0.1814687142738775 dpk[3,5] + pk_loss[3]
   = 0
 R112: - 0.2919 Pg[0] - 0.3169 Pg[1] - 0.4093 Pg[3] - 0.4093 Pg[4]
   - 0.3611 Pg[5] - 0.3611 Pg[6] + flujo[3] = -228.716212
 R113: flujo[3] - Pk_mas[3] + Pk_menos[3] = 0
 R114: - Pk_mas[3] - Pk_menos[3] + dpk[3,0] + dpk[3,1] + dpk[3,2]
   + dpk[3,3] + dpk[3,4] + dpk[3,5] = 0
 R115: Pk_mas[3] + Pk_menos[3] + pk_loss[3] <= 232.4412
 R116: - 0.0164971558430798 dpk[4,0] - 0.0494914675292393 dpk[4,1]
   - 0.0824857792153989 dpk[4,2] - 0.1154800909015584 dpk[4,3]
   - 0.148474402587718 dpk[4,4] - 0.1814687142738775 dpk[4,5] + pk_loss[4]
   = 0
 R117: - 0.2919 Pg[0] - 0.3169 Pg[1] - 0.4093 Pg[3] - 0.4093 Pg[4]
   - 0.3611 Pg[5] - 0.3611 Pg[6] + flujo[4] = -228.716212
 R118: flujo[4] - Pk_mas[4] + Pk_menos[4] = 0
 R119: - Pk_mas[4] - Pk_menos[4] + dpk[4,0] + dpk[4,1] + dpk[4,2]
   + dpk[4,3] + dpk[4,4] + dpk[4,5] = 0
 R120: Pk_mas[4] + Pk_menos[4] + pk_loss[4] <= 232.4412
 R121: - 0.0256167431652241 dpk[5,0] - 0.0768502294956724 dpk[5,1]
   - 0.1280837158261207 dpk[5,2] - 0.179317202156569 dpk[5,3]
   - 0.2305506884870173 dpk[5,4] - 0.2817841748174655 dpk[5,5] + pk_loss[5]
   = 0
 R122: - 0.4163 Pg[0] - 0.3661 Pg[1] - 0.1814 Pg[3] - 0.1814 Pg[4]
   - 0.2778 Pg[5] - 0.2778 Pg[6] + flujo[5] = -183.456852
 R123: flujo[5] - Pk_mas[5] + Pk_menos[5] = 0
 R124: - Pk_mas[5] - Pk_menos[5] + dpk[5,0] + dpk[5,1] + dpk[5,2]
   + dpk[5,3] + dpk[5,4] + dpk[5,5] = 0
 R125: Pk_mas[5] + Pk_menos[5] + pk_loss[5] <= 232.4412
 R126: - 0.0180137635673469 dpk[6,0] - 0.0540412907020408 dpk[6,1]
   - 0.0900688178367347 dpk[6,2] - 0.1260963449714286 dpk[6,3]
   - 0.1621238721061225 dpk[6,4] - 0.1981513992408164 dpk[6,5] + pk_loss[6]
   = 0
 R127: - 0.195 Pg[0] - 0.0359 Pg[1] + 0.0047 Pg[3] + 0.0047 Pg[4]
   + 0.0161 Pg[5] + 0.0161 Pg[6] + flujo[6] = 1.234836
 R128: flujo[6] - Pk_mas[6] + Pk_menos[6] = 0
 R129: - Pk_mas[6] - Pk_menos[6] + dpk[6,0] + dpk[6,1] + dpk[6,2]
   + dpk[6,3] + dpk[6,4] + dpk[6,5] = 0
 R130: Pk_mas[6] + Pk_menos[6] + pk_loss[6] <= 85.7365
 R131: - 0.0187581182231989 dpk[7,0] - 0.0562743546695966 dpk[7,1]
   - 0.0937905911159943 dpk[7,2] - 0.131306827562392 dpk[7,3]
   - 0.1688230640087897 dpk[7,4] - 0.2063393004551874 dpk[7,5] + pk_loss[7]
   = 0
 R132: 0.0292 Pg[0] + 0.0054 Pg[1] - 0.0007 Pg[3] - 0.0007 Pg[4]
   - 0.0024 Pg[5] - 0.0024 Pg[6] + flujo[7] = -1.335975000000001
 R133: flujo[7] - Pk_mas[7] + Pk_menos[7] = 0
 R134: - Pk_mas[7] - Pk_menos[7] + dpk[7,0] + dpk[7,1] + dpk[7,2]
   + dpk[7,3] + dpk[7,4] + dpk[7,5] = 0
 R135: Pk_mas[7] + Pk_menos[7] + pk_loss[7] <= 85.7365
 R136: - 0.0327523101103874 dpk[8,0] - 0.0982569303311622 dpk[8,1]
   - 0.1637615505519369 dpk[8,2] - 0.2292661707727117 dpk[8,3]
   - 0.2947707909934865 dpk[8,4] - 0.3602754112142613 dpk[8,5] + pk_loss[8]
   = 0
 R137: 0.1271 Pg[0] + 0.0234 Pg[1] - 0.0031 Pg[3] - 0.0031 Pg[4]
   - 0.0105 Pg[5] - 0.0105 Pg[6] + flujo[8] = -3.003358000000001
 R138: flujo[8] - Pk_mas[8] + Pk_menos[8] = 0
 R139: - Pk_mas[8] - Pk_menos[8] + dpk[8,0] + dpk[8,1] + dpk[8,2]
   + dpk[8,3] + dpk[8,4] + dpk[8,5] = 0
 R140: Pk_mas[8] + Pk_menos[8] + pk_loss[8] <= 85.7365
 R141: - 0.0237723519931643 dpk[9,0] - 0.0713170559794929 dpk[9,1]
   - 0.1188617599658215 dpk[9,2] - 0.1664064639521501 dpk[9,3]
   - 0.2139511679384788 dpk[9,4] - 0.2614958719248073 dpk[9,5] + pk_loss[9]
   = 0
 R142: - 0.1206 Pg[0] - 0.1623 Pg[1] + 0.0334 Pg[3] + 0.0334 Pg[4]
   - 0.5597 Pg[5] - 0.5597 Pg[6] + flujo[9] = -131.818454
 R143: flujo[9] - Pk_mas[9] + Pk_menos[9] = 0
 R144: - Pk_mas[9] - Pk_menos[9] + dpk[9,0] + dpk[9,1] + dpk[9,2]
   + dpk[9,3] + dpk[9,4] + dpk[9,5] = 0
 R145: Pk_mas[9] + Pk_menos[9] + pk_loss[9] <= 232.4412
 R146: - 0.0254118116644801 dpk[10,0] - 0.0762354349934402 dpk[10,1]
   - 0.1270590583224003 dpk[10,2] - 0.1778826816513604 dpk[10,3]
   - 0.2287063049803205 dpk[10,4] - 0.2795299283092805 dpk[10,5]
   + pk_loss[10] = 0
 R147: - 0.2247 Pg[0] - 0.3024 Pg[1] + 0.0623 Pg[3] + 0.0623 Pg[4]
   - 0.1153 Pg[5] - 0.1153 Pg[6] + flujo[10] = -70.83642699999999
 R148: flujo[10] - Pk_mas[10] + Pk_menos[10] = 0
 R149: - Pk_mas[10] - Pk_menos[10] + dpk[10,0] + dpk[10,1] + dpk[10,2]
   + dpk[10,3] + dpk[10,4] + dpk[10,5] = 0
 R150: Pk_mas[10] + Pk_menos[10] + pk_loss[10] <= 232.4412
 R151: - 0.0245408003475376 dpk[11,0] - 0.0736224010426129 dpk[11,1]
   - 0.1227040017376881 dpk[11,2] - 0.1717856024327634 dpk[11,3]
   - 0.2208672031278386 dpk[11,4] - 0.2699488038229138 dpk[11,5]
   + pk_loss[11] = 0
 R152: - 0.2383 Pg[0] - 0.1691 Pg[1] + 0.0857 Pg[3] + 0.0857 Pg[4]
   - 0.0472 Pg[5] - 0.0472 Pg[6] + flujo[11] = -37.766467
 R153: flujo[11] - Pk_mas[11] + Pk_menos[11] = 0
 R154: - Pk_mas[11] - Pk_menos[11] + dpk[11,0] + dpk[11,1] + dpk[11,2]
   + dpk[11,3] + dpk[11,4] + dpk[11,5] = 0
 R155: Pk_mas[11] + Pk_menos[11] + pk_loss[11] <= 232.4412
 R156: - 0.0235674204924223 dpk[12,0] - 0.0707022614772668 dpk[12,1]
   - 0.1178371024621113 dpk[12,2] - 0.1649719434469558 dpk[12,3]
   - 0.2121067844318004 dpk[12,4] - 0.2592416254166448 dpk[12,5]
   + pk_loss[12] = 0
 R157: - 0.1206 Pg[0] - 0.1623 Pg[1] + 0.0334 Pg[3] + 0.0334 Pg[4]
   + 0.4403 Pg[5] + 0.4403 Pg[6] + flujo[12] = 56.581546
 R158: flujo[12] - Pk_mas[12] + Pk_menos[12] = 0
 R159: - Pk_mas[12] - Pk_menos[12] + dpk[12,0] + dpk[12,1] + dpk[12,2]
   + dpk[12,3] + dpk[12,4] + dpk[12,5] = 0
 R160: Pk_mas[12] + Pk_menos[12] + pk_loss[12] <= 232.4412
 R161: - 0.00594304035039642 dpk[13,0] - 0.0178291210511893 dpk[13,1]
   - 0.0297152017519821 dpk[13,2] - 0.041601282452775 dpk[13,3]
   - 0.0534873631535678 dpk[13,4] - 0.0653734438543606 dpk[13,5]
   + pk_loss[13] = 0
 R162: - 0.0232 Pg[0] + 0.5946 Pg[1] + 0.0879 Pg[3] + 0.0879 Pg[4]
   + 0.2984 Pg[5] + 0.2984 Pg[6] + flujo[13] = 147.05927
 R163: flujo[13] - Pk_mas[13] + Pk_menos[13] = 0
 R164: - Pk_mas[13] - Pk_menos[13] + dpk[13,0] + dpk[13,1] + dpk[13,2]
   + dpk[13,3] + dpk[13,4] + dpk[13,5] = 0
 R165: Pk_mas[13] + Pk_menos[13] + pk_loss[13] <= 232.4412
 R166: - 0.0239687275821934 dpk[14,0] - 0.0719061827465801 dpk[14,1]
   - 0.1198436379109668 dpk[14,2] - 0.1677810930753535 dpk[14,3]
   - 0.2157185482397402 dpk[14,4] - 0.2636560034041269 dpk[14,5]
   + pk_loss[14] = 0
 R167: 0.0292 Pg[0] + 0.0054 Pg[1] - 0.0007 Pg[3] - 0.0007 Pg[4]
   - 0.0024 Pg[5] - 0.0024 Pg[6] + flujo[14] = -9.875975
 R168: flujo[14] - Pk_mas[14] + Pk_menos[14] = 0
 R169: - Pk_mas[14] - Pk_menos[14] + dpk[14,0] + dpk[14,1] + dpk[14,2]
   + dpk[14,3] + dpk[14,4] + dpk[14,5] = 0
 R170: Pk_mas[14] + Pk_menos[14] + pk_loss[14] <= 85.7365
 R171: - 0.0127436016694571 dpk[15,0] - 0.0382308050083714 dpk[15,1]
   - 0.0637180083472857 dpk[15,2] - 0.0892052116862 dpk[15,3]
   - 0.1146924150251142 dpk[15,4] - 0.1401796183640285 dpk[15,5]
   + pk_loss[15] = 0
 R172: 0.0979 Pg[0] + 0.018 Pg[1] - 0.0024 Pg[3] - 0.0024 Pg[4]
   - 0.0081 Pg[5] - 0.0081 Pg[6] + flujo[15] = -20.566893
 R173: flujo[15] - Pk_mas[15] + Pk_menos[15] = 0
 R174: - Pk_mas[15] - Pk_menos[15] + dpk[15,0] + dpk[15,1] + dpk[15,2]
   + dpk[15,3] + dpk[15,4] + dpk[15,5] = 0
 R175: Pk_mas[15] + Pk_menos[15] + pk_loss[15] <= 85.7365
 Pmin: Pg[0] >= 0
 Pmax: - Pg[0] >= 0
 Pmin: Pg[1] >= 0
 Pmax: - Pg[1] >= 0
 Pmin: Pg[2] >= 100
 Pmax: - Pg[2] >= -492
 Pmin: Pg[3] >= 100
 Pmax: - Pg[3] >= -500
 Pmin: Pg[4] >= 100
 Pmax: - Pg[4] >= -500
 Pmin: Pg[5] >= 100
 Pmax: - Pg[5] >= -492
 Pmin: Pg[6] >= 100
 Pmax: - Pg[6] >= -492
 Pmin_pv: Pg_pv[0] >= 0
 Pmax_pv: - Pg_pv[0] >= -110
 Pmin_pe: Pg_pe[0] >= 0
 Pmax_pe: - Pg_pe[0] >= -2
 Balance: Pg[0] + Pg[1] + Pg[2] + Pg[3] + Pg[4] + Pg[5] + Pg[6] + Pg_pv[0]
   + 25 Pg_pe[0] - pk_loss[0] - pk_loss[1] - pk_loss[2] - pk_loss[3]
   - pk_loss[4] - pk_loss[5] - pk_loss[6] - pk_loss[7] - pk_loss[8]
   - pk_loss[9] - pk_loss[10] - pk_loss[11] - pk_loss[12] - pk_loss[13]
   - pk_loss[14] - pk_loss[15] = 760.8899912834167
Bounds
 flujo[0] free
 flujo[1] free
 flujo[2] free
 flujo[3] free
 flujo[4] free
 flujo[5] free
 flujo[6] free
 flujo[7] free
 flujo[8] free
 flujo[9] free
 flujo[10] free
 flujo[11] free
 flujo[12] free
 flujo[13] free
 flujo[14] free
 flujo[15] free
 Constant = 1
End
